p cnf 200 1110
-101 42 0
-101 84 0
-101 -47 0
-101 25 0
-101 7 0
-101 18 0
-101 -63 0
-101 37 0
-101 66 0
-101 -56 0
101 -42 -84 47 -25 -7 -18 63 -37 -66 56 0
-102 -78 0
-102 -45 0
-102 -80 0
-102 -74 0
-102 -49 0
-102 -31 0
-102 40 0
-102 97 0
-102 -25 0
-102 92 0
102 78 45 80 74 49 31 -40 -97 25 -92 0
-103 43 0
-103 -8 0
-103 94 0
-103 -66 0
-103 26 0
-103 -86 0
-103 -61 0
-103 84 0
-103 -37 0
-103 -52 0
103 -43 8 -94 66 -26 86 61 -84 37 52 0
-104 -79 0
-104 71 0
-104 -61 0
-104 -41 0
-104 -29 0
-104 37 0
-104 67 0
-104 16 0
-104 95 0
-104 14 0
104 79 -71 61 41 29 -37 -67 -16 -95 -14 0
-105 33 0
-105 46 0
-105 32 0
-105 29 0
-105 97 0
-105 62 0
-105 42 0
-105 41 0
-105 77 0
-105 18 0
105 -33 -46 -32 -29 -97 -62 -42 -41 -77 -18 0
-106 59 0
-106 1 0
-106 35 0
-106 -21 0
-106 96 0
-106 74 0
-106 13 0
-106 40 0
-106 90 0
-106 97 0
106 -59 -1 -35 21 -96 -74 -13 -40 -90 -97 0
-107 -52 0
-107 19 0
-107 2 0
-107 64 0
-107 -14 0
-107 6 0
-107 -96 0
-107 -56 0
-107 -97 0
-107 -82 0
107 52 -19 -2 -64 14 -6 96 56 97 82 0
-108 60 0
-108 -25 0
-108 -50 0
-108 -88 0
-108 -53 0
-108 -82 0
-108 -41 0
-108 54 0
-108 -43 0
-108 -12 0
108 -60 25 50 88 53 82 41 -54 43 12 0
-109 -46 0
-109 -15 0
-109 62 0
-109 64 0
-109 63 0
-109 -21 0
-109 12 0
-109 -27 0
-109 26 0
-109 -14 0
109 46 15 -62 -64 -63 21 -12 27 -26 14 0
-110 81 0
-110 -92 0
-110 -29 0
-110 1 0
-110 -25 0
-110 -70 0
-110 -57 0
-110 -55 0
-110 -7 0
-110 87 0
110 -81 92 29 -1 25 70 57 55 7 -87 0
101 102 103 104 105 106 107 108 109 110 0
-111 -85 0
-111 19 0
-111 26 0
-111 83 0
-111 -76 0
-111 -3 0
-111 -68 0
-111 33 0
-111 72 0
-111 99 0
111 85 -19 -26 -83 76 3 68 -33 -72 -99 0
-112 80 0
-112 -75 0
-112 -17 0
-112 14 0
-112 12 0
-112 -70 0
-112 -47 0
-112 96 0
-112 -95 0
-112 18 0
112 -80 75 17 -14 -12 70 47 -96 95 -18 0
-113 50 0
-113 5 0
-113 -3 0
-113 -47 0
-113 -29 0
-113 76 0
-113 -24 0
-113 71 0
-113 -40 0
-113 -8 0
113 -50 -5 3 47 29 -76 24 -71 40 8 0
-114 -45 0
-114 -18 0
-114 51 0
-114 -35 0
-114 -8 0
-114 91 0
-114 23 0
-114 -83 0
-114 72 0
-114 -62 0
114 45 18 -51 35 8 -91 -23 83 -72 62 0
-115 -2 0
-115 -91 0
-115 84 0
-115 -62 0
-115 -89 0
-115 -24 0
-115 -38 0
-115 -78 0
-115 -95 0
-115 21 0
115 2 91 -84 62 89 24 38 78 95 -21 0
-116 -27 0
-116 38 0
-116 -68 0
-116 -37 0
-116 91 0
-116 -12 0
-116 24 0
-116 -78 0
-116 39 0
-116 -9 0
116 27 -38 68 37 -91 12 -24 78 -39 9 0
-117 -7 0
-117 65 0
-117 76 0
-117 11 0
-117 68 0
-117 59 0
-117 -50 0
-117 34 0
-117 -97 0
-117 -91 0
117 7 -65 -76 -11 -68 -59 50 -34 97 91 0
-118 -88 0
-118 -20 0
-118 75 0
-118 -30 0
-118 9 0
-118 -87 0
-118 15 0
-118 33 0
-118 -10 0
-118 32 0
118 88 20 -75 30 -9 87 -15 -33 10 -32 0
-119 17 0
-119 71 0
-119 55 0
-119 -15 0
-119 -65 0
-119 -93 0
-119 -11 0
-119 23 0
-119 -14 0
-119 -35 0
119 -17 -71 -55 15 65 93 11 -23 14 35 0
-120 90 0
-120 77 0
-120 1 0
-120 -42 0
-120 -96 0
-120 57 0
-120 48 0
-120 -54 0
-120 -26 0
-120 -6 0
120 -90 -77 -1 42 96 -57 -48 54 26 6 0
111 112 113 114 115 116 117 118 119 120 0
-121 -79 0
-121 -48 0
-121 -87 0
-121 -97 0
-121 -24 0
-121 57 0
-121 -94 0
-121 -3 0
-121 -73 0
-121 -49 0
121 79 48 87 97 24 -57 94 3 73 49 0
-122 66 0
-122 -34 0
-122 -26 0
-122 15 0
-122 -17 0
-122 -81 0
-122 37 0
-122 70 0
-122 -5 0
-122 -19 0
122 -66 34 26 -15 17 81 -37 -70 5 19 0
-123 77 0
-123 50 0
-123 -41 0
-123 80 0
-123 22 0
-123 -56 0
-123 69 0
-123 48 0
-123 -39 0
-123 4 0
123 -77 -50 41 -80 -22 56 -69 -48 39 -4 0
-124 10 0
-124 -93 0
-124 -35 0
-124 -23 0
-124 -8 0
-124 -91 0
-124 -57 0
-124 68 0
-124 -78 0
-124 -36 0
124 -10 93 35 23 8 91 57 -68 78 36 0
-125 96 0
-125 68 0
-125 -54 0
-125 -10 0
-125 -27 0
-125 3 0
-125 -67 0
-125 -21 0
-125 -95 0
-125 50 0
125 -96 -68 54 10 27 -3 67 21 95 -50 0
-126 29 0
-126 -96 0
-126 -24 0
-126 -97 0
-126 -36 0
-126 95 0
-126 11 0
-126 -60 0
-126 14 0
-126 -91 0
126 -29 96 24 97 36 -95 -11 60 -14 91 0
-127 92 0
-127 -56 0
-127 -36 0
-127 -62 0
-127 93 0
-127 -25 0
-127 -70 0
-127 -94 0
-127 100 0
-127 51 0
127 -92 56 36 62 -93 25 70 94 -100 -51 0
-128 -57 0
-128 -83 0
-128 15 0
-128 42 0
-128 -2 0
-128 -7 0
-128 -23 0
-128 -39 0
-128 62 0
-128 68 0
128 57 83 -15 -42 2 7 23 39 -62 -68 0
-129 42 0
-129 -26 0
-129 -37 0
-129 41 0
-129 83 0
-129 12 0
-129 -29 0
-129 34 0
-129 23 0
-129 36 0
129 -42 26 37 -41 -83 -12 29 -34 -23 -36 0
-130 -93 0
-130 31 0
-130 -7 0
-130 8 0
-130 68 0
-130 -70 0
-130 66 0
-130 -74 0
-130 29 0
-130 -10 0
130 93 -31 7 -8 -68 70 -66 74 -29 10 0
121 122 123 124 125 126 127 128 129 130 0
-131 80 0
-131 70 0
-131 -31 0
-131 72 0
-131 -39 0
-131 -60 0
-131 -8 0
-131 43 0
-131 83 0
-131 -35 0
131 -80 -70 31 -72 39 60 8 -43 -83 35 0
-132 -68 0
-132 -7 0
-132 9 0
-132 -48 0
-132 71 0
-132 30 0
-132 -16 0
-132 38 0
-132 76 0
-132 -32 0
132 68 7 -9 48 -71 -30 16 -38 -76 32 0
-133 76 0
-133 -27 0
-133 -4 0
-133 2 0
-133 57 0
-133 -31 0
-133 100 0
-133 11 0
-133 22 0
-133 -5 0
133 -76 27 4 -2 -57 31 -100 -11 -22 5 0
-134 61 0
-134 -79 0
-134 -36 0
-134 -95 0
-134 -20 0
-134 -11 0
-134 -55 0
-134 -21 0
-134 -49 0
-134 -30 0
134 -61 79 36 95 20 11 55 21 49 30 0
-135 -33 0
-135 93 0
-135 73 0
-135 95 0
-135 -83 0
-135 -67 0
-135 6 0
-135 -50 0
-135 57 0
-135 45 0
135 33 -93 -73 -95 83 67 -6 50 -57 -45 0
-136 -11 0
-136 -74 0
-136 39 0
-136 68 0
-136 -70 0
-136 61 0
-136 -27 0
-136 51 0
-136 -55 0
-136 -85 0
136 11 74 -39 -68 70 -61 27 -51 55 85 0
-137 -24 0
-137 -61 0
-137 8 0
-137 -71 0
-137 14 0
-137 43 0
-137 37 0
-137 -72 0
-137 4 0
-137 -17 0
137 24 61 -8 71 -14 -43 -37 72 -4 17 0
-138 3 0
-138 34 0
-138 25 0
-138 -28 0
-138 -79 0
-138 -60 0
-138 -88 0
-138 -6 0
-138 -29 0
-138 59 0
138 -3 -34 -25 28 79 60 88 6 29 -59 0
-139 -21 0
-139 -19 0
-139 14 0
-139 89 0
-139 72 0
-139 -20 0
-139 24 0
-139 -58 0
-139 41 0
-139 59 0
139 21 19 -14 -89 -72 20 -24 58 -41 -59 0
-140 -23 0
-140 85 0
-140 -19 0
-140 12 0
-140 -96 0
-140 -73 0
-140 -39 0
-140 75 0
-140 -83 0
-140 10 0
140 23 -85 19 -12 96 73 39 -75 83 -10 0
131 132 133 134 135 136 137 138 139 140 0
-141 -59 0
-141 -38 0
-141 100 0
-141 -84 0
-141 19 0
-141 98 0
-141 -5 0
-141 -73 0
-141 57 0
-141 -66 0
141 59 38 -100 84 -19 -98 5 73 -57 66 0
-142 9 0
-142 16 0
-142 -14 0
-142 -37 0
-142 69 0
-142 -71 0
-142 80 0
-142 -34 0
-142 -78 0
-142 87 0
142 -9 -16 14 37 -69 71 -80 34 78 -87 0
-143 -54 0
-143 36 0
-143 43 0
-143 89 0
-143 -37 0
-143 63 0
-143 3 0
-143 99 0
-143 19 0
-143 -80 0
143 54 -36 -43 -89 37 -63 -3 -99 -19 80 0
-144 -38 0
-144 14 0
-144 -45 0
-144 39 0
-144 -37 0
-144 -76 0
-144 18 0
-144 -67 0
-144 68 0
-144 77 0
144 38 -14 45 -39 37 76 -18 67 -68 -77 0
-145 -63 0
-145 -71 0
-145 49 0
-145 -99 0
-145 -54 0
-145 25 0
-145 12 0
-145 3 0
-145 81 0
-145 59 0
145 63 71 -49 99 54 -25 -12 -3 -81 -59 0
-146 -35 0
-146 -47 0
-146 78 0
-146 -99 0
-146 25 0
-146 8 0
-146 62 0
-146 4 0
-146 -12 0
-146 -27 0
146 35 47 -78 99 -25 -8 -62 -4 12 27 0
-147 -56 0
-147 -69 0
-147 100 0
-147 18 0
-147 -21 0
-147 -27 0
-147 -55 0
-147 -9 0
-147 -23 0
-147 -68 0
147 56 69 -100 -18 21 27 55 9 23 68 0
-148 4 0
-148 59 0
-148 -23 0
-148 -44 0
-148 -34 0
-148 -60 0
-148 33 0
-148 -64 0
-148 61 0
-148 1 0
148 -4 -59 23 44 34 60 -33 64 -61 -1 0
-149 84 0
-149 -70 0
-149 -57 0
-149 -6 0
-149 -88 0
-149 94 0
-149 -27 0
-149 81 0
-149 66 0
-149 13 0
149 -84 70 57 6 88 -94 27 -81 -66 -13 0
-150 -13 0
-150 45 0
-150 52 0
-150 -66 0
-150 78 0
-150 -23 0
-150 43 0
-150 58 0
-150 17 0
-150 -4 0
150 13 -45 -52 66 -78 23 -43 -58 -17 4 0
141 142 143 144 145 146 147 148 149 150 0
-151 65 0
-151 -30 0
-151 90 0
-151 60 0
-151 69 0
-151 -86 0
-151 -23 0
-151 82 0
-151 79 0
-151 -95 0
151 -65 30 -90 -60 -69 86 23 -82 -79 95 0
-152 75 0
-152 1 0
-152 76 0
-152 -47 0
-152 99 0
-152 -67 0
-152 29 0
-152 49 0
-152 53 0
-152 -68 0
152 -75 -1 -76 47 -99 67 -29 -49 -53 68 0
-153 57 0
-153 -74 0
-153 55 0
-153 19 0
-153 -29 0
-153 -2 0
-153 -1 0
-153 8 0
-153 -87 0
-153 26 0
153 -57 74 -55 -19 29 2 1 -8 87 -26 0
-154 -73 0
-154 41 0
-154 62 0
-154 -17 0
-154 54 0
-154 71 0
-154 -46 0
-154 21 0
-154 -47 0
-154 -92 0
154 73 -41 -62 17 -54 -71 46 -21 47 92 0
-155 -42 0
-155 -36 0
-155 31 0
-155 49 0
-155 -67 0
-155 81 0
-155 9 0
-155 2 0
-155 -79 0
-155 -10 0
155 42 36 -31 -49 67 -81 -9 -2 79 10 0
-156 87 0
-156 -10 0
-156 84 0
-156 -57 0
-156 76 0
-156 6 0
-156 -73 0
-156 49 0
-156 -31 0
-156 -43 0
156 -87 10 -84 57 -76 -6 73 -49 31 43 0
-157 -2 0
-157 23 0
-157 -35 0
-157 66 0
-157 1 0
-157 27 0
-157 -39 0
-157 32 0
-157 97 0
-157 71 0
157 2 -23 35 -66 -1 -27 39 -32 -97 -71 0
-158 60 0
-158 -88 0
-158 -23 0
-158 48 0
-158 96 0
-158 -46 0
-158 -52 0
-158 -6 0
-158 19 0
-158 80 0
158 -60 88 23 -48 -96 46 52 6 -19 -80 0
-159 44 0
-159 -50 0
-159 -58 0
-159 -78 0
-159 23 0
-159 11 0
-159 -45 0
-159 -19 0
-159 -75 0
-159 -87 0
159 -44 50 58 78 -23 -11 45 19 75 87 0
-160 -18 0
-160 55 0
-160 39 0
-160 76 0
-160 -25 0
-160 -64 0
-160 -71 0
-160 54 0
-160 -4 0
-160 43 0
160 18 -55 -39 -76 25 64 71 -54 4 -43 0
151 152 153 154 155 156 157 158 159 160 0
-161 1 0
-161 25 0
-161 95 0
-161 -46 0
-161 82 0
-161 -42 0
-161 -40 0
-161 62 0
-161 71 0
-161 34 0
161 -1 -25 -95 46 -82 42 40 -62 -71 -34 0
-162 -58 0
-162 -37 0
-162 -16 0
-162 42 0
-162 89 0
-162 92 0
-162 11 0
-162 -10 0
-162 -79 0
-162 72 0
162 58 37 16 -42 -89 -92 -11 10 79 -72 0
-163 -66 0
-163 -74 0
-163 32 0
-163 39 0
-163 8 0
-163 -59 0
-163 -13 0
-163 -57 0
-163 92 0
-163 9 0
163 66 74 -32 -39 -8 59 13 57 -92 -9 0
-164 30 0
-164 94 0
-164 -47 0
-164 -16 0
-164 7 0
-164 -4 0
-164 84 0
-164 -77 0
-164 -28 0
-164 -95 0
164 -30 -94 47 16 -7 4 -84 77 28 95 0
-165 -27 0
-165 47 0
-165 2 0
-165 11 0
-165 -80 0
-165 88 0
-165 38 0
-165 54 0
-165 -83 0
-165 -19 0
165 27 -47 -2 -11 80 -88 -38 -54 83 19 0
-166 -49 0
-166 92 0
-166 3 0
-166 -41 0
-166 -40 0
-166 -80 0
-166 -21 0
-166 86 0
-166 43 0
-166 6 0
166 49 -92 -3 41 40 80 21 -86 -43 -6 0
-167 -72 0
-167 27 0
-167 92 0
-167 65 0
-167 12 0
-167 39 0
-167 22 0
-167 -4 0
-167 -36 0
-167 11 0
167 72 -27 -92 -65 -12 -39 -22 4 36 -11 0
-168 16 0
-168 -94 0
-168 -25 0
-168 44 0
-168 78 0
-168 35 0
-168 -99 0
-168 10 0
-168 -12 0
-168 -74 0
168 -16 94 25 -44 -78 -35 99 -10 12 74 0
-169 -33 0
-169 28 0
-169 -59 0
-169 67 0
-169 3 0
-169 -92 0
-169 93 0
-169 -100 0
-169 -65 0
-169 1 0
169 33 -28 59 -67 -3 92 -93 100 65 -1 0
-170 21 0
-170 89 0
-170 -70 0
-170 -20 0
-170 -58 0
-170 33 0
-170 -3 0
-170 -53 0
-170 87 0
-170 73 0
170 -21 -89 70 20 58 -33 3 53 -87 -73 0
161 162 163 164 165 166 167 168 169 170 0
-171 4 0
-171 100 0
-171 18 0
-171 39 0
-171 51 0
-171 53 0
-171 -70 0
-171 -95 0
-171 68 0
-171 -85 0
171 -4 -100 -18 -39 -51 -53 70 95 -68 85 0
-172 28 0
-172 87 0
-172 -83 0
-172 43 0
-172 69 0
-172 86 0
-172 -79 0
-172 -96 0
-172 -34 0
-172 -23 0
172 -28 -87 83 -43 -69 -86 79 96 34 23 0
-173 44 0
-173 -92 0
-173 59 0
-173 62 0
-173 3 0
-173 55 0
-173 74 0
-173 5 0
-173 -75 0
-173 -66 0
173 -44 92 -59 -62 -3 -55 -74 -5 75 66 0
-174 -50 0
-174 73 0
-174 56 0
-174 82 0
-174 18 0
-174 -44 0
-174 12 0
-174 53 0
-174 33 0
-174 90 0
174 50 -73 -56 -82 -18 44 -12 -53 -33 -90 0
-175 -26 0
-175 -94 0
-175 -37 0
-175 66 0
-175 -48 0
-175 3 0
-175 38 0
-175 -56 0
-175 -30 0
-175 10 0
175 26 94 37 -66 48 -3 -38 56 30 -10 0
-176 26 0
-176 -45 0
-176 -39 0
-176 1 0
-176 -68 0
-176 44 0
-176 -93 0
-176 -92 0
-176 -15 0
-176 25 0
176 -26 45 39 -1 68 -44 93 92 15 -25 0
-177 -57 0
-177 -68 0
-177 93 0
-177 -65 0
-177 38 0
-177 -91 0
-177 14 0
-177 23 0
-177 64 0
-177 77 0
177 57 68 -93 65 -38 91 -14 -23 -64 -77 0
-178 -13 0
-178 59 0
-178 -75 0
-178 94 0
-178 -38 0
-178 -2 0
-178 -87 0
-178 -46 0
-178 -32 0
-178 66 0
178 13 -59 75 -94 38 2 87 46 32 -66 0
-179 35 0
-179 -15 0
-179 78 0
-179 -37 0
-179 56 0
-179 -3 0
-179 18 0
-179 75 0
-179 29 0
-179 72 0
179 -35 15 -78 37 -56 3 -18 -75 -29 -72 0
-180 52 0
-180 26 0
-180 54 0
-180 53 0
-180 -25 0
-180 -19 0
-180 -62 0
-180 28 0
-180 -75 0
-180 56 0
180 -52 -26 -54 -53 25 19 62 -28 75 -56 0
171 172 173 174 175 176 177 178 179 180 0
-181 80 0
-181 10 0
-181 -6 0
-181 -40 0
-181 87 0
-181 -54 0
-181 57 0
-181 33 0
-181 -100 0
-181 -65 0
181 -80 -10 6 40 -87 54 -57 -33 100 65 0
-182 -45 0
-182 52 0
-182 93 0
-182 24 0
-182 -41 0
-182 87 0
-182 13 0
-182 88 0
-182 -98 0
-182 -9 0
182 45 -52 -93 -24 41 -87 -13 -88 98 9 0
-183 80 0
-183 -20 0
-183 53 0
-183 91 0
-183 -34 0
-183 97 0
-183 64 0
-183 -70 0
-183 -38 0
-183 39 0
183 -80 20 -53 -91 34 -97 -64 70 38 -39 0
-184 -1 0
-184 -40 0
-184 -56 0
-184 75 0
-184 -59 0
-184 -39 0
-184 -88 0
-184 9 0
-184 99 0
-184 -62 0
184 1 40 56 -75 59 39 88 -9 -99 62 0
-185 63 0
-185 25 0
-185 100 0
-185 -76 0
-185 -71 0
-185 31 0
-185 36 0
-185 77 0
-185 13 0
-185 21 0
185 -63 -25 -100 76 71 -31 -36 -77 -13 -21 0
-186 45 0
-186 97 0
-186 11 0
-186 -77 0
-186 81 0
-186 -18 0
-186 20 0
-186 69 0
-186 7 0
-186 19 0
186 -45 -97 -11 77 -81 18 -20 -69 -7 -19 0
-187 24 0
-187 -44 0
-187 -95 0
-187 26 0
-187 -75 0
-187 16 0
-187 22 0
-187 27 0
-187 53 0
-187 -84 0
187 -24 44 95 -26 75 -16 -22 -27 -53 84 0
-188 -69 0
-188 -87 0
-188 -4 0
-188 -45 0
-188 88 0
-188 66 0
-188 -47 0
-188 -2 0
-188 -60 0
-188 -22 0
188 69 87 4 45 -88 -66 47 2 60 22 0
-189 -18 0
-189 33 0
-189 -100 0
-189 50 0
-189 -57 0
-189 58 0
-189 -9 0
-189 -75 0
-189 68 0
-189 96 0
189 18 -33 100 -50 57 -58 9 75 -68 -96 0
-190 87 0
-190 -46 0
-190 30 0
-190 53 0
-190 49 0
-190 41 0
-190 4 0
-190 -24 0
-190 -93 0
-190 29 0
190 -87 46 -30 -53 -49 -41 -4 24 93 -29 0
181 182 183 184 185 186 187 188 189 190 0
-191 69 0
-191 36 0
-191 -60 0
-191 35 0
-191 -8 0
-191 -3 0
-191 -50 0
-191 -74 0
-191 -10 0
-191 64 0
191 -69 -36 60 -35 8 3 50 74 10 -64 0
-192 -54 0
-192 87 0
-192 -10 0
-192 25 0
-192 6 0
-192 35 0
-192 -9 0
-192 61 0
-192 -51 0
-192 58 0
192 54 -87 10 -25 -6 -35 9 -61 51 -58 0
-193 -73 0
-193 -6 0
-193 88 0
-193 -71 0
-193 100 0
-193 -13 0
-193 -16 0
-193 -86 0
-193 -48 0
-193 95 0
193 73 6 -88 71 -100 13 16 86 48 -95 0
-194 -3 0
-194 41 0
-194 51 0
-194 -16 0
-194 9 0
-194 -10 0
-194 -14 0
-194 11 0
-194 -24 0
-194 -44 0
194 3 -41 -51 16 -9 10 14 -11 24 44 0
-195 -74 0
-195 39 0
-195 -1 0
-195 95 0
-195 44 0
-195 37 0
-195 -55 0
-195 -87 0
-195 -70 0
-195 21 0
195 74 -39 1 -95 -44 -37 55 87 70 -21 0
-196 68 0
-196 -50 0
-196 -5 0
-196 -56 0
-196 -21 0
-196 100 0
-196 20 0
-196 -92 0
-196 39 0
-196 -7 0
196 -68 50 5 56 21 -100 -20 92 -39 7 0
-197 48 0
-197 -33 0
-197 98 0
-197 -40 0
-197 27 0
-197 -15 0
-197 -51 0
-197 -66 0
-197 86 0
-197 7 0
197 -48 33 -98 40 -27 15 51 66 -86 -7 0
-198 75 0
-198 20 0
-198 98 0
-198 97 0
-198 52 0
-198 37 0
-198 -44 0
-198 1 0
-198 -92 0
-198 9 0
198 -75 -20 -98 -97 -52 -37 44 -1 92 -9 0
-199 42 0
-199 76 0
-199 -19 0
-199 27 0
-199 95 0
-199 -45 0
-199 -51 0
-199 22 0
-199 39 0
-199 -26 0
199 -42 -76 19 -27 -95 45 51 -22 -39 26 0
-200 -30 0
-200 -90 0
-200 89 0
-200 94 0
-200 -50 0
-200 -97 0
-200 -63 0
-200 -74 0
-200 -54 0
-200 68 0
200 30 90 -89 -94 50 97 63 74 54 -68 0
191 192 193 194 195 196 197 198 199 200 0
